(set-info :smt-lib-version 2.6)
(set-logic LRA)
(set-info :source |
   Monniaux, David; Quantifier Elimination by Lazy Model Enumeration, CAV 2010
|)
(set-info :category "random")
; ./Mjollnir_examples/B4/formula_251.m
(set-info :status unsat)
(assert
 (exists ((|v11:0| Real) )(exists ((|v10:1| Real) )(exists ((|v9:2| Real) )(exists ((|v8:3| Real) )(forall ((|v7:4| Real) )(forall ((|v6:5| Real) )(forall ((|v5:6| Real) )(forall ((|v4:7| Real) )(exists ((|v3:8| Real) )(exists ((|v2:9| Real) )(exists ((|v1:10| Real) )(exists ((|v0:11| Real) )(let ((?x20 (- 16)))
(let ((?x593 (+ (+ (* 17 |v7:4|) (* (- 8) |v7:4|)) (* 10 |v2:9|))))
(let ((?x161 5))
(let ((?x185 16))
(let ((?x186 (* ?x185 |v1:10|)))
(let ((?x589 (+ (+ (+ (* 8 |v2:9|) |v6:5|) (* (- 10) |v9:2|)) ?x186)))
(let ((?x231 (- 14)))
(let ((?x158 17))
(let ((?x581 (* ?x158 |v7:4|)))
(let ((?x430 (* ?x161 |v1:10|)))
(let ((?x582 (+ (+ (+ (* 8 |v9:2|) (* (- 15) |v1:10|)) ?x430) ?x581)))
(let ((?x238 (- 8)))
(let ((?x518 (* ?x238 |v1:10|)))
(let ((?x31 (- 11)))
(let ((?x223 (* ?x31 |v9:2|)))
(let ((?x577 (+ (+ (+ (* (- 17) |v11:0|) (* (- 7) |v2:9|)) ?x223) ?x518)))
(let (($x598 (and (and (<= ?x577 ?x185) (<= ?x582 ?x231)) (and (<= ?x589 ?x161) (<= (+ ?x593 (* 6 |v2:9|)) ?x20)))))
(let ((?x89 (- 9)))
(let ((?x569 (+ (+ (* 12 |v4:7|) (* (- 12) |v2:9|)) (* 19 |v8:3|))))
(let ((?x259 (- 3)))
(let ((?x269 (* ?x259 |v7:4|)))
(let ((?x563 (+ (+ (* 12 |v8:3|) (* (- 13) |v7:4|)) (* (- 19) |v1:10|))))
(let (($x573 (and (<= (+ ?x563 ?x269) ?x161) (<= (+ ?x569 (* (- 15) |v3:8|)) ?x89))))
(let ((?x199 (- 13)))
(let ((?x165 6))
(let ((?x402 (* ?x165 |v11:0|)))
(let ((?x558 (+ (+ (+ (* 13 |v9:2|) (* 20 |v0:11|)) ?x402) (* 18 |v3:8|))))
(let ((?x196 14))
(let ((?x124 (- 18)))
(let ((?x348 (* ?x124 |v9:2|)))
(let ((?x552 (+ (+ (* 13 |v10:1|) (* (- 5) |v8:3|)) (* 19 |v2:9|))))
(let ((?x181 11))
(let ((?x542 (+ (+ (* (- 20) |v3:8|) (* (- 1) |v4:7|)) (* (- 2) |v8:3|))))
(let ((?x535 (+ (+ (* 19 |v5:6|) (* ?x238 |v7:4|)) (* (- 10) |v3:8|))))
(let (($x546 (and (<= (+ ?x535 (* 13 |v6:5|)) ?x199) (<= (+ ?x542 (* 15 |v8:3|)) ?x181))))
(let ((?x37 (- 5)))
(let ((?x529 (+ (+ (+ (* ?x199 |v0:11|) (* 7 |v0:11|)) (* ?x158 |v10:1|)) (* 15 |v3:8|))))
(let ((?x76 2))
(let ((?x144 (- 4)))
(let ((?x145 (* ?x144 |v6:5|)))
(let (($x523 (<= (+ (+ (+ ?x518 (* ?x161 |v0:11|)) (* 20 |v6:5|)) ?x145) ?x76)))
(let ((?x15 19))
(let ((?x514 (+ (+ (+ (* ?x89 |v10:1|) (* ?x37 |v1:10|)) (* 3 |v0:11|)) (* 4 |v4:7|))))
(let ((?x110 (- 12)))
(let (($x508 (<= (+ (+ (+ (* ?x199 |v11:0|) (* ?x20 |v7:4|)) (* ?x144 |v0:11|)) |v8:3|) ?x110)))
(let ((?x500 (+ (+ (+ (* 3 |v8:3|) (* 18 |v7:4|)) |v6:5|) (* 13 |v8:3|))))
(let ((?x100 12))
(let ((?x383 (* ?x199 |v7:4|)))
(let ((?x493 (+ (+ (+ (* (- 6) |v4:7|) (* 15 |v6:5|)) ?x383) (* ?x76 |v5:6|))))
(let (($x548 (and (and (and (<= ?x493 ?x100) (<= ?x500 ?x161)) (and $x508 (<= ?x514 ?x15))) (and (and $x523 (<= ?x529 ?x37)) $x546))))
(let (($x600 (and $x548 (and (or (and (<= (+ ?x552 ?x348) ?x196) (<= ?x558 ?x199)) $x573) $x598))))
(let ((?x81 (- 17)))
(let ((?x483 (+ (+ (+ (* 20 |v8:3|) |v3:8|) (* ?x15 |v1:10|)) (* 3 |v7:4|))))
(let ((?x464 (* ?x81 |v8:3|)))
(let ((?x477 (+ (+ (+ (* (- 10) |v8:3|) (* ?x231 |v6:5|)) (* ?x124 |v6:5|)) ?x464)))
(let ((?x469 (+ (+ (+ ?x464 (* ?x37 |v8:3|)) (* 9 |v0:11|)) (* 0 |v3:8|))))
(let ((?x354 1))
(let ((?x460 (+ (+ (* 18 |v4:7|) (* (- 7) |v6:5|)) (* 20 |v3:8|))))
(let (($x486 (and (and (<= (+ ?x460 (* ?x161 |v7:4|)) ?x354) (<= ?x469 ?x165)) (and (<= ?x477 ?x165) (<= ?x483 ?x81)))))
(let (($x453 (<= (+ (+ (+ (* 20 |v5:6|) |v4:7|) (* ?x89 |v9:2|)) ?x348) ?x354)))
(let ((?x281 4))
(let ((?x323 (* ?x281 |v0:11|)))
(let ((?x445 (+ (+ (* 7 |v2:9|) (* ?x100 |v7:4|)) (* 0 |v7:4|))))
(let ((?x437 (+ (+ (* ?x161 |v2:9|) (* (- 20) |v5:6|)) (* 15 |v0:11|))))
(let ((?x71 7))
(let ((?x72 (* ?x71 |v7:4|)))
(let (($x441 (and (<= (+ (+ (+ (* ?x20 |v0:11|) (* ?x89 |v10:1|)) ?x430) ?x72) ?x231) (<= (+ ?x437 (* ?x71 |v4:7|)) ?x259))))
(let (($x424 (<= (+ (+ (+ (* ?x20 |v4:7|) (* ?x89 |v3:8|)) ?x223) (* ?x196 |v1:10|)) ?x89)))
(let ((?x151 18))
(let ((?x306 15))
(let ((?x307 (* ?x306 |v6:5|)))
(let ((?x249 8))
(let ((?x250 (* ?x249 |v0:11|)))
(let ((?x416 (+ (+ (+ (* 13 |v11:0|) (* 13 |v5:6|)) ?x250) ?x307)))
(let ((?x410 (+ (+ (+ (* ?x199 |v2:9|) (* 13 |v0:11|)) (* ?x185 |v2:9|)) (* ?x185 |v11:0|))))
(let ((?x168 10))
(let (($x404 (<= (+ (+ (+ (* ?x306 |v10:1|) |v2:9|) (* 13 |v7:4|)) ?x402) ?x168)))
(let ((?x56 3))
(let ((?x57 (* ?x56 |v11:0|)))
(let (($x395 (<= (+ (+ (+ (* ?x76 |v2:9|) (* ?x168 |v10:1|)) (* ?x158 |v10:1|)) ?x57) ?x100)))
(let ((?x388 (+ (+ (+ ?x383 (* (- 7) |v4:7|)) (* ?x249 |v7:4|)) (* ?x151 |v2:9|))))
(let ((?x97 (- 20)))
(let ((?x380 (+ (+ (+ (* ?x37 |v8:3|) (* ?x196 |v4:7|)) (* (- 1) |v7:4|)) (* ?x185 |v3:8|))))
(let ((?x225 (* ?x100 |v7:4|)))
(let ((?x373 (+ (+ (+ (* (- 7) |v2:9|) (* ?x181 |v3:8|)) (* ?x165 |v3:8|)) ?x225)))
(let (($x427 (and (and (and (<= ?x373 ?x168) (<= ?x380 ?x97)) (and (<= ?x388 ?x238) $x395)) (and (and $x404 (<= ?x410 ?x354)) (and (<= ?x416 ?x151) $x424)))))
(let (($x601 (and (and $x427 (and (and $x441 (and (<= (+ ?x445 ?x323) ?x81) $x453)) $x486)) $x600)))
(let ((?x361 (+ (+ (+ (* ?x249 |v9:2|) (* ?x158 |v9:2|)) (* ?x259 |v2:9|)) (* ?x31 |v5:6|))))
(let ((?x23 (- 7)))
(let ((?x352 (* ?x23 |v4:7|)))
(let ((?x353 (+ (+ (+ ?x348 (* (- 2) |v2:9|)) (* (- 10) |v5:6|)) ?x352)))
(let ((?x135 (- 2)))
(let ((?x344 (+ (+ (+ (* ?x158 |v9:2|) (* ?x76 |v10:1|)) (* (- 15) |v2:9|)) (* ?x168 |v8:3|))))
(let ((?x337 (+ (+ (+ (* ?x97 |v2:9|) (* ?x181 |v7:4|)) (* ?x238 |v6:5|)) (* ?x89 |v11:0|))))
(let (($x364 (and (and (<= ?x337 ?x306) (<= ?x344 ?x135)) (and (<= ?x353 ?x354) (<= ?x361 ?x354)))))
(let ((?x107 (- 19)))
(let (($x329 (<= (+ (+ (+ ?x323 (* ?x100 |v8:3|)) (* ?x97 |v1:10|)) (* ?x107 |v2:9|)) ?x107)))
(let ((?x321 (+ (+ (+ (* (- 15) |v1:10|) (* ?x100 |v10:1|)) (* ?x158 |v9:2|)) (* (- 1) |v1:10|))))
(let (($x313 (<= (+ (+ (+ (* ?x97 |v11:0|) ?x307) (* ?x97 |v1:10|)) (* ?x135 |v2:9|)) ?x81)))
(let ((?x302 (+ (+ (+ (* ?x23 |v8:3|) (* ?x15 |v1:10|)) (* ?x110 |v6:5|)) (* ?x81 |v6:5|))))
(let (($x365 (and (and (and (<= ?x302 ?x151) $x313) (and (<= ?x321 ?x281) $x329)) $x364)))
(let ((?x291 (+ (+ (+ (* ?x20 |v3:8|) (* ?x76 |v3:8|)) (* ?x76 |v9:2|)) (* ?x124 |v7:4|))))
(let ((?x140 (- 6)))
(let ((?x283 (+ (+ (+ (* ?x168 |v6:5|) (* ?x144 |v3:8|)) (* ?x56 |v10:1|)) (* ?x281 |v2:9|))))
(let ((?x272 (+ (+ (+ (* ?x196 |v4:7|) (* ?x20 |v0:11|)) ?x269) (* 9 |v3:8|))))
(let ((?x263 (* ?x158 |v10:1|)))
(let ((?x264 (+ (+ (+ (* 9 |v6:5|) (* ?x259 |v9:2|)) (* ?x107 |v6:5|)) ?x263)))
(let (($x294 (and (and (<= ?x264 ?x196) (<= ?x272 ?x97)) (and (<= ?x283 ?x140) (<= ?x291 ?x168)))))
(let (($x254 (<= (+ (+ (+ (* ?x107 |v6:5|) ?x250) (* ?x31 |v11:0|)) (* ?x140 |v9:2|)) ?x168)))
(let ((?x245 (+ (+ (+ (* ?x238 |v4:7|) (* ?x97 |v7:4|)) (* ?x97 |v6:5|)) (* ?x238 |v3:8|))))
(let ((?x85 (- 10)))
(let ((?x210 (* ?x85 |v10:1|)))
(let (($x235 (<= (+ (+ (+ (* ?x140 |v0:11|) (* ?x158 |v6:5|)) (* ?x231 |v7:4|)) ?x210) ?x151)))
(let (($x227 (<= (+ (+ (+ (* ?x15 |v10:1|) (* 13 |v0:11|)) ?x223) ?x225) ?x110)))
(let (($x366 (and (and (and (and $x227 $x235) (and (<= ?x245 ?x15) $x254)) $x294) $x365)))
(let (($x215 (<= (+ (+ (+ (* ?x76 |v0:11|) ?x210) (* ?x196 |v3:8|)) (* ?x31 |v11:0|)) ?x20)))
(let ((?x206 (* ?x140 |v9:2|)))
(let (($x208 (<= (+ (+ (+ (* ?x144 |v11:0|) (* ?x161 |v2:9|)) (* ?x135 |v10:1|)) ?x206) ?x81)))
(let ((?x198 (+ (+ (+ (* ?x81 |v1:10|) (* ?x181 |v8:3|)) (* ?x110 |v2:9|)) (* ?x196 |v11:0|))))
(let (($x188 (<= (+ (+ (+ (* ?x144 |v4:7|) (* ?x158 |v8:3|)) (* ?x181 |v7:4|)) ?x186) ?x81)))
(let ((?x174 0))
(let (($x175 (<= (+ (+ (+ (* ?x165 |v0:11|) (* ?x168 |v4:7|)) ?x57) (* ?x144 |v7:4|)) ?x174)))
(let ((?x159 (* ?x158 |v8:3|)))
(let ((?x160 (+ (+ (+ (* ?x151 |v10:1|) (* ?x31 |v4:7|)) (* 20 |v0:11|)) ?x159)))
(let ((?x132 (- 1)))
(let ((?x131 (+ (+ (+ (* ?x124 |v4:7|) (* ?x110 |v1:10|)) (* ?x31 |v7:4|)) (* ?x23 |v7:4|))))
(let (($x148 (and (<= ?x131 ?x132) (<= (+ (+ (+ (* ?x135 |v10:1|) |v4:7|) (* ?x140 |v0:11|)) ?x145) ?x100))))
(let (($x218 (or (and $x148 (and (<= ?x160 ?x161) $x175)) (and (and $x188 (<= ?x198 ?x199)) (and $x208 $x215)))))
(let ((?x117 (+ (+ (+ (* ?x110 |v7:4|) (* ?x31 |v11:0|)) (* ?x20 |v9:2|)) (* ?x89 |v6:5|))))
(let ((?x105 (* ?x81 |v11:0|)))
(let (($x108 (<= (+ (+ (+ (* ?x97 |v3:8|) (* ?x100 |v3:8|)) (* ?x20 |v7:4|)) ?x105) ?x107)))
(let ((?x11 (- 15)))
(let (($x82 (<= (+ (+ (+ ?x72 (* ?x23 |v1:10|)) (* ?x76 |v7:4|)) (* ?x71 |v10:1|)) ?x81)))
(let (($x94 (and $x82 (<= (+ (+ (+ |v3:8| (* ?x85 |v2:9|)) (* ?x89 |v5:6|)) |v3:8|) ?x11))))
(let ((?x60 13))
(let ((?x64 (* ?x60 |v9:2|)))
(let ((?x27 9))
(let ((?x50 (+ (+ (+ |v8:3| (* 20 |v6:5|)) (* ?x37 |v4:7|)) (* ?x27 |v4:7|))))
(let (($x67 (and (<= ?x50 ?x27) (<= (+ (+ (+ (* ?x37 |v2:9|) ?x57) (* ?x60 |v5:6|)) ?x64) ?x20))))
(let (($x40 (<= (+ (+ (+ (* ?x27 |v7:4|) (* ?x31 |v1:10|)) |v10:1|) (* ?x37 |v10:1|)) ?x20)))
(let (($x24 (<= (+ (+ (+ |v5:6| (* ?x11 |v4:7|)) (* ?x15 |v5:6|)) (* ?x20 |v8:3|)) ?x23)))
(let (($x121 (and (and (and $x24 $x40) $x67) (and $x94 (and $x108 (<= ?x117 ?x23))))))
(and (and (and $x121 $x218) $x366) $x601))))))))))))))))))))))))))))))))))))))))))))))))))))))))))))))))))))))))))))))))))))))))))))))))))))))))))))))))))))))))))))))))))))))))))))))))
)
)
)
)
)
)
)
)
)
)
)
)
(check-sat)
(exit)

